c --- [ banner ] -------------------------------------------------------------
c 
c CaDiCaL Radically Simplified CDCL SAT Solver
c Copyright (c) 2016-2021 A. Biere, M. Fleury, N. Froleyks
c 
c Version 1.5.2 a5f15211db36c3956764e18194dd5bd63bf3b5e6
c g++ (GCC) 9.3.0 -Wall -Wextra -O3 -DNDEBUG
c Fri Oct 21 01:27:37 EDT 2022 Linux gra-login3 3.10.0-1160.66.1.el7.x86_64 x86_64
c 
c --- [ limit ] --------------------------------------------------------------
c 
c setting conflict limit to 200000 conflicts (due to '200000')
c 
c --- [ parsing input ] ------------------------------------------------------
c 
c reading DIMACS file from '33.cubes7503.adj'
c opening file to read '33.cubes7503.adj'
c found 'p cnf 6160 1595484' header
c parsed 1595484 clauses in 16.17 seconds process time
c closing file '33.cubes7503.adj'
c after reading 1457566835 bytes 1390.0 MB
c 
c --- [ options ] ------------------------------------------------------------
c 
c all options are set to their default value
c 
c --- [ solving ] ------------------------------------------------------------
c 
c time measured in process time since initialization
c 
c  seconds    reductions  redundant   irredundant
c          MB     restarts       trail       variables
c            level   conflicts       glue         remaining
c 
c * 16.17 1383  0 0   0    0    0  0% 0 1595422 2304 37%
c { 17.08 1434  0 0   0    0    0  0% 0 1595422 2304 37%
c i 17.63 1456 711 0   0   11    8 30% 2 1595422 2298 37%
c i 17.92 1470 862 0   0   20   10 35% 2 1595422 2283 37%
c i 21.07 1516 308 0  12   92   73 30% 35 1595422 2279 37%
c i 21.35 1516 235 0  12  125   97 30% 31 1595422 2278 37%
c - 27.42 1492 125 1  21  301  260 29% 29 607578 2278 37%
c i 27.73 1494 112 1  21  346  300 29% 27 607578 2277 37%
c i 28.10 1494 88 1  24  489  420 30% 26 607578 2276 37%
c i 28.25 1495 79 1  25  575  480 30% 26 607578 2275 37%
c i 28.35 1495 79 1  25  589  492 30% 25 607578 2274 37%
c i 28.41 1495 78 1  25  616  515 30% 25 607578 2273 37%
c i 28.79 1495 69 1  25  779  654 30% 25 607578 2272 37%
c i 28.85 1495 64 1  25  875  727 30% 24 607578 2271 37%
c } 28.98 1495 58 1  25 1002  828 30% 23 607578 2271 37%
c [ 28.98 1495  0 1  25 1002  828  0% 0 607578 2271 37%
c O 29.00 1495  6 1  25 1003  829 15% 1 607578 2271 37%
c - 30.71 1766 28 2  25 1373 1012 31% 22 607557 2271 37%
c i 30.89 1766 25 2  25 1553 1138 31% 20 607557 2270 37%
c i 31.59 1766 25 2  26 2571 1862 30% 21 607557 2269 37%
c 
c  seconds    reductions  redundant   irredundant
c          MB     restarts       trail       variables
c            level   conflicts       glue         remaining
c 
c - 32.45 1765 30 3  26 2978 1659 30% 24 607551 2269 37%
c ] 32.85 1765 30 3  26 3004 1680 52% 24 607551 2269 37%
c { 32.85 1765 58 3  26 3004 1680 81% 23 607551 2269 37%
c F 32.87 1765 58 3  26 3005 1681 81% 23 607551 2269 37%
c i 34.05 1765 57 3  45 3242 1873 73% 23 607551 2262 37%
c i 34.78 1765 62 3  64 3308 1936 72% 24 607551 2260 37%
c i 36.52 1765 68 3 111 3481 2088 68% 26 607551 2259 37%
c i 36.97 1765 63 3 122 3753 2305 65% 25 607551 2258 37%
c i 37.82 1765 57 3 133 4153 2616 62% 24 607551 2257 37%
c i 38.08 1765 56 3 136 4237 2685 61% 24 607551 2256 37%
c d 39.61 1765 49 3 140 5002 3288 58% 23 607371 2250 37%
c 2 39.71 1765 49 3 140 5002 4521 58% 23 607371 2248 36%
c p 44.24 1765 49 3 140 5002 7874 58% 23 607371 2205 36%
c d 45.07 1765 49 3 140 5002 7757 58% 23 607237 2204 36%
c - 45.85 1748 49 4 140 5118 2491 57% 23 607237 2204 36%
c # 50.34 1748 47 4 231 6006 3253 55% 24 607237 2204 36%
c } 51.12 1748 42 4 235 7004 3984 53% 22 607237 2204 36%
c [ 51.12 1748 30 4 235 7004 3984 52% 24 607237 2204 36%
c - 51.77 1748 27 5 236 7796 3270 48% 22 607237 2204 36%
c I 52.96 1748 25 5 237 10008 4644 49% 20 607237 2204 36%
c 
c  seconds    reductions   redundant   irredundant
c          MB     restarts        trail       variables
c            level    conflicts       glue         remaining
c 
c - 56.14 1748 25 6 238 11007 3880 49% 20 607237 2204 36%
c - 65.25 1748 25 7 240 14752 4718 49% 20 607237 2204 36%
c p 67.12 1748 25 7 240 15003 9742 49% 20 607237 2204 36%
c ] 67.22 1748 25 7 240 15004 9743 49% 20 607237 2204 36%
c { 67.22 1748 42 7 240 15004 9743 53% 22 607237 2204 36%
c B 67.54 1748 42 7 240 15015 9752 53% 22 607237 2204 36%
c s 82.58 1748 40 7 590 18873 12578 50% 23 605876 2204 36%
c v 89.06 1748 40 7 590 18873 12578 50% 23 605866 2204 36%
c t 89.24 1748 40 7 590 18873 12573 50% 23 605862 2204 36%
c e 90.59 1749 40 7 590 18873 9713 50% 23 603790 996 16%
c s 90.72 1749 40 7 590 18873 9713 50% 23 603459 996 16%
c - 93.39 1750 40 8 595 19034 6150 63% 23 603459 996 16%
c W 95.05 1750 35 8 595 21016 7460 63% 21 603459 996 16%
c - 98.47 1499 33 9 703 23841 6432 63% 20 603459 996 16%
c F 113.60 1499 32 9 921 28018 9372 64% 20 603459 996 16%
c - 119.62 1750 32 10 1011 29183 7411 64% 20 603459 996 16%
c 2 120.67 1750 32 10 1035 30005 8731 64% 20 603459 996 16%
c p 122.06 1750 32 10 1035 30005 10878 64% 20 603459 996 16%
c } 123.14 1750 31 10 1036 31005 11524 64% 20 603459 996 16%
c [ 123.14 1750 25 10 1036 31005 11524 112% 20 603459 996 16%
c 
c  seconds     reductions     redundant   irredundant
c           MB      restarts         trail       variables
c             level      conflicts       glue        remaining
c 
c - 125.46 1499 23 11 1038 35060 7518 96% 19 603459 996 16%
c B 126.53 1499 22 11 1039 36020 8038 94% 18 603459 996 16%
c - 130.69 1751 36 12 1042 41472 8654 85% 29 603459 996 16%
c W 134.21 1750 45 12 1043 45021 11494 82% 35 603459 996 16%
c - 135.45 1499 46 13 1044 48417 9457 79% 36 603459 996 16%
c p 138.93 1499 46 13 1044 50013 13617 79% 36 603459 996 16%
c O 141.73 1499 44 13 1045 55023 16875 76% 35 603459 996 16%
c s 142.29 1499 43 13 1046 55845 17371 76% 35 603036 996 16%
c v 152.66 1499 43 13 1046 55845 17371 76% 35 603019 996 16%
c t 153.01 1499 43 13 1046 55845 17342 76% 35 603019 996 16%
c s 154.59 1499 43 13 1046 55845 17342 76% 35 602710 996 16%
c - 156.46 1751 43 14 1046 55896 9925 76% 35 602710 996 16%
c ] 159.17 1751 41 14 1051 63006 14678 74% 33 602710 996 16%
c { 159.17 1751 31 14 1051 63006 14678 64% 20 602710 996 16%
c - 162.35 1499 32 15 1218 63906 10087 64% 20 602710 996 16%
c B 167.61 1499 31 15 1293 66024 11624 65% 20 602710 996 16%
c - 190.19 1751 31 16 1739 72450 11051 65% 21 602710 996 16%
c p 192.93 1751 30 16 1747 75013 16073 65% 20 602710 996 16%
c W 195.23 1751 29 16 1778 78025 18140 65% 20 602710 996 16%
c - 196.96 1499 28 17 1811 81529 12138 65% 19 602710 996 16%
c 
c  seconds     reductions      redundant   irredundant
c           MB      restarts          trail       variables
c             level      conflicts        glue        remaining
c 
c # 221.35 1499 27 17 2433 91030 19129 65% 19 602710 996 16%
c - 222.04 1751 27 18 2434 91143 13795 65% 19 602710 996 16%
c - 238.34 1499 27 19 2817 101289 14541 65% 19 602710 996 16%
c p 244.26 1499 26 19 2853 105013 20347 65% 19 602710 996 16%
c B 244.63 1499 26 19 2853 105032 20362 65% 19 602710 996 16%
c s 250.87 1499 25 19 2919 111294 24434 65% 18 602185 996 16%
c v 264.22 1499 25 19 2919 111294 24434 65% 18 602162 996 16%
c w 264.99 1499 25 19 2919 111294 24404 65% 18 602162 996 16%
c t 265.00 1499 25 19 2919 111294 24402 65% 18 602162 996 16%
c s 266.68 1499 25 19 2919 111294 24402 65% 18 601821 996 16%
c - 269.66 1751 25 20 2920 111969 15227 65% 18 601821 996 16%
c W 276.58 1751 24 20 3038 120034 20488 65% 18 601821 996 16%
c - 280.52 1500 24 21 3241 123179 15769 65% 18 601821 996 16%
c } 284.98 1499 23 21 3273 127010 18128 65% 17 601821 996 16%
c [ 284.98 1499 41 21 3273 127010 18128 74% 33 601821 996 16%
c - 295.95 1751 37 22 3276 134924 15483 72% 30 601821 996 16%
c B 296.78 1751 36 22 3277 136036 16204 72% 30 601821 996 16%
c ] 298.79 1751 36 22 3280 139865 19007 71% 30 601821 996 16%
c 1 298.79 1751 36 22 3280 139865 19007 71% 30 601821 996 16%
c 
c --- [ writing output ] -----------------------------------------------------
c 
c writing simplified CNF to DIMACS file 'simp/33.cubes7503.adj.simp1'
c * 298.79 1751 36 22 3280 139865 19007 71% 30 601821 996 16%
c opening file to write 'simp/33.cubes7503.adj.simp1'
c writing 'p cnf 6160 601821' header
c closing file 'simp/33.cubes7503.adj.simp1'
c after writing 290287836 bytes 276.8 MB
c wrote 601821 clauses in 1.52 seconds process time
c 
c --- [ writing extension ] --------------------------------------------------
c 
c writing extension stack to 'simp/33.cubes7503.adj.ext1'
c opening file to write 'simp/33.cubes7503.adj.ext1'
c closing file 'simp/33.cubes7503.adj.ext1'
c after writing 82571 bytes 0.1 MB
c wrote 3681 witnesses in 0.00 seconds process time
c 
c --- [ result ] -------------------------------------------------------------
c 
s SATISFIABLE
c 
c --- [ run-time profiling ] -------------------------------------------------
c 
c process time taken by individual solving procedures
c (percentage relative to process time for solving)
c 
c       223.92   79.23% search
c       168.57   59.64% unstable
c        58.70   20.77% simplify
c        50.51   17.87% stable
c        31.32   11.08% vivify
c        16.17    5.72% parse
c        15.92    5.63% probe
c         7.80    2.76% elim
c         3.93    1.39% walk
c         1.13    0.40% subsume
c         0.91    0.32% lucky
c         0.37    0.13% ternary
c   =================================
c       282.62   94.11% solve
c 
c last line shows process time for solving
c (percentage relative to total process time)
c 
c --- [ statistics ] ---------------------------------------------------------
c 
c chronological:             26085        18.65 %  of conflicts
c conflicts:                139865       494.89    per second
c decisions:                306258      1083.64    per second
c eliminated:                 1208        19.61 %  of all variables
c fixed:                       805        13.07 %  of all variables
c learned:                  136674        97.72 %  per conflict
c learned_lits:           24393408       100.00 %  learned literals
c minimized:                     0         0.00 %  learned literals
c shrunken:               15791360        64.74 %  learned literals
c minishrunken:            1657072         6.79 %  learned literals
c propagations:           11660341         0.04 M  per second
c reduced:                   76267        54.53 %  per conflict
c rephased:                     16      8741.56    interval
c restarts:                   3280        42.64    interval
c stabilizing:                   4        39.22 %  of conflicts
c substituted:                   7         0.11 %  of all variables
c subsumed:                  44498         1.24 %  of all clauses
c strengthened:              12029         0.33 %  of all clauses
c ternary:                    5658         0.82 %  of resolved
c vivified:                    120         0.00 %  of all clauses
c walked:                        4     34966.25    interval
c weakened:                   2876         3.13    average size
c 
c seconds are measured in process time for solving
c 
c --- [ resources ] ----------------------------------------------------------
c 
c total process time since initialization:       300.31    seconds
c total real time since initialization:          301.29    seconds
c maximum resident set size of process:         2034.29    MB
c 
c --- [ shutting down ] ------------------------------------------------------
c 
c exit 10
WARNING! DIMACS header mismatch: wrong number of variables.
============================[ Problem Statistics ]=============================
|                                                                             |
|  Number of variables:          6120                                         |
|  Number of clauses:          601823                                         |
|  Parse time:                   3.41 s                                       |
|  Simplification time:          0.12 s                                       |
|                                                                             |
============================[ Search Statistics ]====================================================
| Conflicts |          ORIGINAL         |          LEARNT          | Num Sols |      SUBGRAPHS      |
|           |    Vars  Clauses Literals |    Limit  Clauses Lit/Cl |          | Canonical Noncanon. |
=====================================================================================================
|       107 |    6030   601830 62738347 |     2000      107    145 |        0 |        16         7 |
|       257 |    6030   601830 62738347 |     2000      257    116 |        0 |        23         7 |
|       482 |    6030   601830 62738347 |     2000      482    107 |        0 |        30         7 |
|       940 |    6030   601951 62740387 |     2000      940     90 |        0 |        61       128 |
|      3584 |    6030   604089 62770910 |     3600     2584     13 |        0 |       795      2266 |
|      4667 |    6030   604413 62776417 |     5004     1871     16 |        0 |       908      2590 |
|      6180 |    6030   604787 62782580 |     5004     3384     44 |        0 |      1059      2964 |
|      7948 |    6030   604847 62783658 |     6306     2654     20 |        0 |      1087      3024 |
|     13481 |    6030   607818 62831901 |     7557     5038     37 |        0 |      1834      5995 |
|     18390 |    6030   608883 62851910 |     8784     6174     39 |        0 |      2069      7060 |
|     26652 |    6030   611379 62894066 |    11206     5058     12 |        0 |      2776      9556 |
|     35559 |    6030   611637 62899986 |    12407     8366     38 |        0 |      2879      9814 |
|     49019 |    6030   612123 62910641 |    14812     8831     32 |        0 |      3050     10300 |
|     81012 |    6030   624655 63095905 |    18409    16821     47 |        0 |      6291     22832 |
|    113711 |    6030   628162 63151706 |    22017    20128     46 |        0 |      7178     26339 |
|    166355 |    6030   637017 63290545 |    26815    25170     49 |        0 |      9410     35194 |
|    254662 |    6030   659640 63640999 |    34022    24084     38 |        0 |     14563     57817 |
|    396541 |    6023   702993 64199263 |    42414    34355     40 |        0 |     23485    101170 |
=====================================================================================================
Number of solutions   : 0
Canonical subgraphs   : 24021          (7 /sec)
          order  3    : 1              (166667 /sec)
          order  4    : 1              (1000000 /sec)
          order  5    : 1              (200000 /sec)
          order  6    : 1              (52632 /sec)
          order  7    : 1              (8264 /sec)
          order  8    : 1              (959 /sec)
          order  9    : 2              (156 /sec)
          order 10    : 7              (40 /sec)
          order 11    : 36             (13 /sec)
          order 12    : 301            (5 /sec)
          order 13    : 3780           (7 /sec)
          order 14    : 5408           (7 /sec)
          order 15    : 13702          (7 /sec)
          order 16    : 365            (5 /sec)
          order 17    : 285            (5 /sec)
          order 18    : 93             (5 /sec)
          order 19    : 19             (5 /sec)
          order 20    : 9              (5 /sec)
          order 21    : 8              (5 /sec)
          order 22    : 0              (-nan /sec)
Noncanonical subgraphs: 103900         (103 /sec)
          order  3    : 0              (-nan /sec)
          order  4    : 0              (-nan /sec)
          order  5    : 0              (-nan /sec)
          order  6    : 0              (-nan /sec)
          order  7    : 0              (-nan /sec)
          order  8    : 0              (-nan /sec)
          order  9    : 0              (-nan /sec)
          order 10    : 0              (-nan /sec)
          order 11    : 0              (-nan /sec)
          order 12    : 0              (-nan /sec)
          order 13    : 7640           (7115 /sec)
          order 14    : 30863          (997 /sec)
          order 15    : 21586          (342 /sec)
          order 16    : 43263          (48 /sec)
          order 17    : 514            (40 /sec)
          order 18    : 24             (30 /sec)
          order 19    : 1              (19 /sec)
          order 20    : 0              (-nan /sec)
          order 21    : 0              (-nan /sec)
Canonicity checking   : 3566.29 s
Noncanonicity checking: 1008.15 s
Total canonicity time : 4574.44 s
database reductions   : 36
restarts              : 1023
conflicts             : 468275         (96 /sec)
decisions             : 744573         (0.00 % random) (153 /sec)
propagations          : 26193394       (5383 /sec)
conflict literals     : 39738038       (52.05 % deleted)
actual reward         : 0.212929
Memory used           : 745.00 MB
CPU time              : 4866.06 s

UNSATISFIABLE
